# Objective value = 3.1303396867239070e+02
x[0] 1
x[1] 0
x[2] 1
x[3] 1
x[4] 0
x[5] 0
x[6] 1
x[7] 0
x[8] 0
x[9] 1
x[10] 0
x[11] 1
x[12] 1
x[13] 0
x[14] 1
x[15] 1
x[16] 1
x[17] 1
x[18] 0
x[19] 0
x[20] 0
x[21] 1
x[22] 1
x[23] 1
x[24] 0
x[25] 1
x[26] 1
x[27] 0
x[28] 1
x[29] 1
x[30] 0
x[31] 0
x[32] 0
x[33] 1
x[34] 1
x[35] 1
x[36] 0
x[37] 0
x[38] 1
x[39] 0
x[40] 1
x[41] 0
x[42] 1
x[43] 0
x[44] 1
x[45] 1
x[46] 0
x[47] 1
x[48] 0
x[49] 0
x[50] 0
x[51] 0
x[52] 0
x[53] 1
x[54] 1
x[55] 0
x[56] 1
x[57] 0
x[58] 0
x[59] 1
x[60] 0
x[61] 1
x[62] 0
x[63] 0
x[64] 0
x[65] 0
x[66] 0
x[67] 0
x[68] 1
x[69] 1
x[70] 0
x[71] 0
x[72] 1
x[73] 0
x[74] 0
x[75] 1
x[76] 0
x[77] 0
x[78] 1
x[79] 0
x[80] 0
x[81] 1
x[82] 0
x[83] 0
x[84] 0
x[85] 1
x[86] 0
x[87] 1
x[88] 0
x[89] 1
x[90] 1
x[91] 1
x[92] 1
x[93] 0
x[94] 1
x[95] 0
x[96] 1
x[97] 1
x[98] 0
x[99] 1
x[100] 0
x[101] 0
x[102] 0
x[103] 0
x[104] 1
x[105] 1
x[106] 1
x[107] 0
x[108] 0
x[109] 1
x[110] 0
x[111] 1
x[112] 1
x[113] 0
x[114] 1
x[115] 1
x[116] 1
x[117] 1
x[118] 0
x[119] 0
x[120] 0
x[121] 1
x[122] 1
x[123] 0
x[124] 0
x[125] 1
x[126] 1
x[127] 0
x[128] 0
x[129] 1
x[130] 0
x[131] 1
x[132] 1
x[133] 0
x[134] 0
x[135] 0
x[136] 0
x[137] 0
x[138] 0
x[139] 0
x[140] 1
x[141] 0
x[142] 1
x[143] 0
x[144] 1
x[145] 0
x[146] 1
x[147] 1
x[148] 0
x[149] 0
x[150] 0
x[151] 0
x[152] 0
x[153] 0
x[154] 1
x[155] 0
x[156] 0
x[157] 0
x[158] 1
x[159] 1
x[160] 0
x[161] 0
x[162] 1
x[163] 1
x[164] 1
x[165] 0
x[166] 1
x[167] 1
x[168] 0
x[169] 1
x[170] 1
x[171] 1
x[172] 1
x[173] 0
x[174] 0
x[175] 0
x[176] 0
x[177] 0
x[178] 0
x[179] 1
x[180] 0
x[181] 1
x[182] 0
x[183] 1
x[184] 0
x[185] 1
x[186] 1
x[187] 0
x[188] 1
x[189] 1
x[190] 0
x[191] 0
x[192] 0
x[193] 0
x[194] 1
x[195] 1
x[196] 0
x[197] 0
x[198] 0
x[199] 0
x[200] 1
x[201] 1
x[202] 0
x[203] 0
x[204] 1
x[205] 1
x[206] 1
x[207] 0
x[208] 0
x[209] 0
x[210] 0
x[211] 1
x[212] 1
x[213] 1
x[214] 0
x[215] 0
x[216] 0
x[217] 1
x[218] 0
x[219] 1
x[220] 1
x[221] 1
x[222] 0
x[223] 0
x[224] 1
x[225] 0
x[226] 0
x[227] 1
x[228] 1
x[229] 0
x[230] 0
x[231] 1
x[232] 1
x[233] 1
x[234] 1
x[235] 1
x[236] 0
x[237] 0
x[238] 0
x[239] 0
x[240] 1
x[241] 0
x[242] 0
x[243] 1
x[244] 0
x[245] 1
x[246] 1
x[247] 1
x[248] 0
x[249] 1
x[250] 0
x[251] 1
x[252] 1
x[253] 1
x[254] 1
x[255] 0
x[256] 0
x[257] 0
x[258] 0
x[259] 1
x[260] 1
x[261] 1
x[262] 0
x[263] 1
x[264] 0
x[265] 0
x[266] 1
x[267] 0
x[268] 0
x[269] 0
x[270] 1
x[271] 1
x[272] 0
x[273] 0
x[274] 1
x[275] 0
x[276] 0
x[277] 0
x[278] 1
x[279] 0
x[280] 0
x[281] 1
x[282] 0
x[283] 1
x[284] 0
x[285] 1
x[286] 0
x[287] 1
x[288] 0
x[289] 1
x[290] 0
x[291] 0
x[292] 1
x[293] 1
x[294] 1
x[295] 1
x[296] 1
x[297] 0
x[298] 1
x[299] 1
x[300] 1
x[301] 1
x[302] 0
x[303] 0
x[304] 1
x[305] 0
x[306] 1
x[307] 1
x[308] 0
x[309] 1
x[310] 1
x[311] 0
x[312] 1
x[313] 0
x[314] 0
x[315] 0
x[316] 1
x[317] 0
x[318] 1
x[319] 0
x[320] 1
x[321] 1
x[322] 0
x[323] 0
x[324] 0
x[325] 0
x[326] 0
x[327] 1
x[328] 1
x[329] 0
x[330] 1
x[331] 0
x[332] 0
x[333] 0
x[334] 1
x[335] 0
x[336] 1
x[337] 1
x[338] 0
x[339] 0
x[340] 0
x[341] 0
x[342] 0
x[343] 0
x[344] 1
x[345] 0
x[346] 0
x[347] 0
x[348] 1
x[349] 1
x[350] 1
x[351] 1
x[352] 0
x[353] 1
x[354] 0
x[355] 0
x[356] 1
x[357] 0
x[358] 1
x[359] 1
x[360] 1
x[361] 1
x[362] 0
x[363] 0
x[364] 1
x[365] 0
x[366] 1
x[367] 1
x[368] 1
x[369] 0
x[370] 1
x[371] 0
x[372] 0
x[373] 0
x[374] 0
x[375] 0
x[376] 0
x[377] 1
x[378] 1
x[379] 0
x[380] 1
x[381] 1
x[382] 0
x[383] 1
x[384] 0
x[385] 0
x[386] 0
x[387] 1
x[388] 0
x[389] 0
x[390] 1
x[391] 1
x[392] 0
x[393] 1
x[394] 0
x[395] 1
x[396] 0
x[397] 1
x[398] 1
x[399] 0
x[400] 0
x[401] 0
x[402] 0
x[403] 1
x[404] 1
x[405] 0
x[406] 1
x[407] 0
x[408] 0
x[409] 1
x[410] 1
x[411] 1
x[412] 1
x[413] 0
x[414] 1
x[415] 0
x[416] 0
x[417] 1
x[418] 0
x[419] 1
x[420] 1
x[421] 0
x[422] 0
x[423] 1
x[424] 1
x[425] 1
x[426] 1
x[427] 1
x[428] 1
x[429] 1
x[430] 0
x[431] 1
x[432] 1
x[433] 1
x[434] 1
x[435] 1
x[436] 0
x[437] 1
x[438] 0
x[439] 1
x[440] 1
x[441] 0
x[442] 1
x[443] 0
x[444] 1
x[445] 0
x[446] 1
x[447] 0
x[448] 0
x[449] 0
x[450] 0
x[451] 0
x[452] 1
x[453] 1
x[454] 0
x[455] 1
x[456] 0
x[457] 1
x[458] 0
x[459] 0
x[460] 1
x[461] 1
x[462] 0
x[463] 0
x[464] 0
x[465] 0
x[466] 0
x[467] 0
x[468] 1
x[469] 0
x[470] 0
x[471] 1
x[472] 0
x[473] 0
x[474] 0
x[475] 0
x[476] 0
x[477] 0
x[478] 1
x[479] 1
x[480] 0
x[481] 0
x[482] 0
x[483] 0
x[484] 0
x[485] 0
x[486] 1
x[487] 0
x[488] 0
x[489] 0
x[490] 0
x[491] 1
x[492] 0
x[493] 1
x[494] 0
x[495] 0
x[496] 1
x[497] 0
x[498] 0
x[499] 0
x[500] 1
x[501] 1
x[502] 1
x[503] 1
x[504] 0
x[505] 1
x[506] 1
x[507] 0
x[508] 0
x[509] 1
x[510] 1
x[511] 0
x[512] 1
x[513] 1
x[514] 1
x[515] 1
x[516] 0
x[517] 0
x[518] 0
x[519] 0
x[520] 0
x[521] 0
x[522] 1
x[523] 1
x[524] 1
x[525] 0
x[526] 0
x[527] 0
x[528] 1
x[529] 0
x[530] 1
x[531] 0
x[532] 0
x[533] 1
x[534] 1
x[535] 0
x[536] 1
x[537] 0
x[538] 1
x[539] 1
x[540] 1
x[541] 1
x[542] 0
x[543] 1
x[544] 1
x[545] 0
x[546] 0
x[547] 1
x[548] 1
x[549] 1
x[550] 0
x[551] 0
x[552] 1
x[553] 0
x[554] 1
x[555] 0
x[556] 0
x[557] 0
x[558] 1
x[559] 1
x[560] 0
x[561] 0
x[562] 0
x[563] 1
x[564] 0
x[565] 1
x[566] 0
x[567] 1
x[568] 0
x[569] 1
x[570] 1
x[571] 0
x[572] 0
x[573] 0
x[574] 0
x[575] 0
x[576] 1
x[577] 1
x[578] 1
x[579] 1
x[580] 1
x[581] 0
x[582] 1
x[583] 1
x[584] 0
x[585] 0
x[586] 0
x[587] 0
x[588] 0
x[589] 1
x[590] 0
x[591] 1
x[592] 0
x[593] 1
x[594] 0
x[595] 0
x[596] 1
x[597] 1
x[598] 1
x[599] 0
x[600] 1
x[601] 1
x[602] 1
x[603] 0
x[604] 0
x[605] 1
x[606] 0
x[607] 0
x[608] 1
x[609] 1
x[610] 0
x[611] 1
x[612] 1
x[613] 0
x[614] 1
x[615] 0
x[616] 1
x[617] 1
x[618] 1
x[619] 1
x[620] 1
x[621] 1
x[622] 0
x[623] 0
x[624] 1
x[625] 1
x[626] 1
x[627] 0
x[628] 1
x[629] 1
x[630] 1
x[631] 0
x[632] 0
x[633] 1
x[634] 0
x[635] 0
x[636] 0
x[637] 1
x[638] 0
x[639] 1
x[640] 0
x[641] 0
x[642] 0
x[643] 0
x[644] 0
x[645] 0
x[646] 1
x[647] 0
x[648] 1
x[649] 0
x[650] 0
x[651] 1
x[652] 1
x[653] 1
x[654] 1
x[655] 1
x[656] 1
x[657] 1
x[658] 0
x[659] 0
x[660] 1
x[661] 0
x[662] 0
x[663] 1
x[664] 1
x[665] 0
x[666] 0
x[667] 1
x[668] 0
x[669] 1
x[670] 0
x[671] 1
x[672] 1
x[673] 1
x[674] 0
x[675] 0
x[676] 1
x[677] 1
x[678] 1
x[679] 0
x[680] 1
x[681] 0
x[682] 1
x[683] 1
x[684] 0
x[685] 1
x[686] 0
x[687] 0
x[688] 0
x[689] 1
x[690] 0
x[691] 0
x[692] 1
x[693] 0
x[694] 0
x[695] 0
x[696] 0
x[697] 1
x[698] 1
x[699] 1
x[700] 1
x[701] 1
x[702] 1
x[703] 0
x[704] 1
x[705] 1
x[706] 0
x[707] 0
x[708] 1
x[709] 0
x[710] 1
x[711] 1
x[712] 1
x[713] 1
x[714] 1
x[715] 1
x[716] 0
x[717] 1
x[718] 0
x[719] 0
x[720] 1
x[721] 0
x[722] 1
x[723] 1
x[724] 1
x[725] 1
x[726] 0
x[727] 1
x[728] 0
x[729] 0
x[730] 1
x[731] 1
x[732] 1
x[733] 0
x[734] 0
x[735] 1
x[736] 1
x[737] 0
x[738] 0
x[739] 0
x[740] 1
x[741] 0
x[742] 0
x[743] 1
x[744] 1
x[745] 0
x[746] 0
x[747] 0
x[748] 0
x[749] 1
x[750] 0
x[751] 1
x[752] 0
x[753] 1
x[754] 0
x[755] 0
x[756] 1
x[757] 0
x[758] 0
x[759] 0
x[760] 1
x[761] 1
x[762] 1
x[763] 0
x[764] 0
x[765] 0
x[766] 1
x[767] 0
x[768] 0
x[769] 0
x[770] 0
x[771] 0
x[772] 1
x[773] 0
x[774] 0
x[775] 0
x[776] 0
x[777] 0
x[778] 0
x[779] 0
x[780] 1
x[781] 1
x[782] 0
x[783] 1
x[784] 1
x[785] 1
x[786] 0
x[787] 0
x[788] 1
x[789] 0
x[790] 0
x[791] 0
x[792] 1
x[793] 0
x[794] 0
x[795] 1
x[796] 0
x[797] 0
x[798] 1
x[799] 0
x[800] 1
x[801] 0
x[802] 0
x[803] 1
x[804] 0
x[805] 1
x[806] 0
x[807] 0
x[808] 1
x[809] 0
x[810] 0
x[811] 1
x[812] 1
x[813] 1
x[814] 1
x[815] 0
x[816] 1
x[817] 0
x[818] 0
x[819] 0
x[820] 0
x[821] 1
x[822] 1
x[823] 1
x[824] 1
x[825] 1
x[826] 1
x[827] 1
x[828] 1
x[829] 1
x[830] 0
x[831] 0
x[832] 0
x[833] 0
x[834] 0
x[835] 0
x[836] 1
x[837] 0
x[838] 1
x[839] 1
x[840] 1
x[841] 0
x[842] 0
x[843] 1
x[844] 1
x[845] 0
x[846] 1
x[847] 1
x[848] 1
x[849] 1
x[850] 0
x[851] 1
x[852] 1
x[853] 0
x[854] 0
x[855] 1
x[856] 1
x[857] 1
x[858] 0
x[859] 1
x[860] 1
x[861] 1
x[862] 0
x[863] 0
x[864] 1
x[865] 1
x[866] 1
x[867] 1
x[868] 0
x[869] 1
x[870] 0
x[871] 1
x[872] 1
x[873] 1
x[874] 0
x[875] 0
x[876] 1
x[877] 1
x[878] 0
x[879] 0
x[880] 0
x[881] 0
x[882] 0
x[883] 1
x[884] 1
x[885] 0
x[886] 1
x[887] 1
x[888] 1
x[889] 1
x[890] 0
x[891] 1
x[892] 1
x[893] 1
x[894] 1
x[895] 1
x[896] 1
x[897] 0
x[898] 1
x[899] 0
x[900] 1
x[901] 0
x[902] 0
x[903] 1
x[904] 1
x[905] 0
x[906] 0
x[907] 1
x[908] 0
x[909] 1
x[910] 0
x[911] 1
x[912] 0
x[913] 1
x[914] 1
x[915] 0
x[916] 0
x[917] 1
x[918] 1
x[919] 0
x[920] 1
x[921] 0
x[922] 1
x[923] 1
x[924] 1
x[925] 1
x[926] 1
x[927] 0
x[928] 1
x[929] 0
x[930] 0
x[931] 0
x[932] 0
x[933] 0
x[934] 1
x[935] 1
x[936] 0
x[937] 0
x[938] 0
x[939] 1
x[940] 1
x[941] 0
x[942] 1
x[943] 0
x[944] 0
x[945] 1
x[946] 0
x[947] 1
x[948] 1
x[949] 1
x[950] 0
x[951] 0
x[952] 0
x[953] 1
x[954] 1
x[955] 0
x[956] 0
x[957] 0
x[958] 1
x[959] 0
x[960] 0
x[961] 0
x[962] 0
x[963] 0
x[964] 0
x[965] 0
x[966] 0
x[967] 1
x[968] 1
x[969] 0
x[970] 0
x[971] 1
x[972] 0
x[973] 1
x[974] 0
x[975] 1
x[976] 1
x[977] 0
x[978] 0
x[979] 1
x[980] 0
x[981] 0
x[982] 0
x[983] 1
x[984] 0
x[985] 1
x[986] 1
x[987] 1
x[988] 0
x[989] 1
x[990] 1
x[991] 0
x[992] 0
x[993] 0
x[994] 1
x[995] 1
x[996] 0
x[997] 1
x[998] 1
x[999] 0
